(set-logic QF_S)
(set-option :strings-exp true)
(set-option :produce-models true)
(declare-fun sigmaStar_0 () String)
(declare-fun sigmaStar_1 () String)
(declare-fun sigmaStar_2 () String)
(declare-fun sigmaStar_3 () String)
(declare-fun sigmaStar_4 () String)
(declare-fun literal_6 () String)
(declare-fun x_11 () String)
(declare-fun literal_5 () String)
(declare-fun x_12 () String)
(declare-fun literal_13 () String)
(declare-fun x_14 () String)
(assert (= literal_6 "\x3c\x62\x72\x3e"))
(assert (= literal_5 ""))
(assert (or (= x_11 sigmaStar_3) (= x_11 sigmaStar_2) (= x_11 sigmaStar_1) (= x_11 sigmaStar_0) (= x_11 literal_5) (= x_11 sigmaStar_4)))
(assert (= x_12 (str.++ literal_6 x_11)))
(assert (= literal_13 "\x3c\x62\x72\x3e\x3c\x62\x72\x3e\x5c\x6e"))
(assert (= x_14 (str.++ x_12 literal_13)))
(assert (str.in.re x_14 (re.++ (re.* re.allchar) (re.++ (str.to.re "\x5c\x3c\x53\x43\x52\x49\x50\x54") (re.* re.allchar)))))
(check-sat)
(get-model)
